************************************************************************
file with basedata            : j9042_.bas
initial value random generator: 1709783220
************************************************************************
projects                      :  1
jobs (incl. supersource/sink ):  92
horizon                       :  442
RESOURCES
  - renewable                 :  4   R
  - nonrenewable              :  0   N
  - doubly constrained        :  0   D
************************************************************************
PROJECT INFORMATION:
pronr.  #jobs rel.date duedate tardcost  MPM-Time
    1     90      0       89       74       89
************************************************************************
PRECEDENCE RELATIONS:
jobnr.    #modes  #successors   successors
   1        1          3           2   3   4
   2        1          3           5   7  12
   3        1          3           6   8  16
   4        1          3          14  24  43
   5        1          3          13  15  17
   6        1          3          10  28  34
   7        1          3          39  72  80
   8        1          3           9  21  40
   9        1          3          11  18  19
  10        1          3          14  22  30
  11        1          3          20  25  41
  12        1          3          27  30  32
  13        1          3          37  42  48
  14        1          2          21  51
  15        1          3          29  50  51
  16        1          2          62  77
  17        1          3          36  46  60
  18        1          3          26  28  46
  19        1          3          24  48  52
  20        1          3          23  44  77
  21        1          2          27  64
  22        1          1          84
  23        1          3          24  71  79
  24        1          3          26  45  90
  25        1          3          33  46  47
  26        1          1          34
  27        1          1          73
  28        1          3          31  32  52
  29        1          3          38  56  78
  30        1          2          53  63
  31        1          3          47  54  57
  32        1          3          35  55  62
  33        1          2          38  88
  34        1          3          38  58  65
  35        1          2          36  37
  36        1          1          59
  37        1          2          56  75
  38        1          1          61
  39        1          3          48  57  63
  40        1          2          66  76
  41        1          3          47  70  81
  42        1          3          52  60  65
  43        1          3          49  57  62
  44        1          3          55  63  83
  45        1          3          61  70  81
  46        1          3          49  55  71
  47        1          2          49  76
  48        1          2          58  77
  49        1          1          66
  50        1          2          61  80
  51        1          3          53  65  82
  52        1          3          53  66  69
  53        1          2          67  87
  54        1          2          56  74
  55        1          1          59
  56        1          3          58  59  60
  57        1          3          64  79  91
  58        1          1          67
  59        1          2          67  69
  60        1          2          64  68
  61        1          1          89
  62        1          3          69  72  74
  63        1          1          87
  64        1          2          71  89
  65        1          3          68  70  80
  66        1          1          74
  67        1          2          68  86
  68        1          2          73  88
  69        1          1          76
  70        1          2          72  73
  71        1          2          82  87
  72        1          3          75  78  85
  73        1          1          84
  74        1          2          75  82
  75        1          1          83
  76        1          2          79  86
  77        1          1          78
  78        1          1          83
  79        1          1          85
  80        1          2          81  86
  81        1          1          85
  82        1          1          90
  83        1          1          84
  84        1          1          91
  85        1          1          88
  86        1          1          91
  87        1          1          90
  88        1          1          89
  89        1          1          92
  90        1          1          92
  91        1          1          92
  92        1          0        
************************************************************************
REQUESTS/DURATIONS:
jobnr. mode duration  R 1  R 2  R 3  R 4
------------------------------------------------------------------------
  1      1     0       0    0    0    0
  2      1     6       6    3   10    0
  3      1     4       9    0    7    6
  4      1     2       0    9    1   10
  5      1     5       0   10    0    4
  6      1     2       6    8    3   10
  7      1     7      10    0    0    5
  8      1     1       0    0    3    6
  9      1     6       9    8    6    0
 10      1    10       2   10   10    3
 11      1     1       9    0    0    1
 12      1    10       2    0    9    0
 13      1     5       1    8   10    7
 14      1     6       0   10    3    0
 15      1     1       9    8    1    0
 16      1     1       1    7    1    8
 17      1     4       0    1    0   10
 18      1     9       2    3    9    0
 19      1     2       0    0    7    8
 20      1     4       7    1    0    5
 21      1    10       0    5    1    1
 22      1     1       7    0    3    9
 23      1     4       3   10    2    0
 24      1     5       2    4    0    7
 25      1     7       0    0    9    7
 26      1     3       0    8   10    5
 27      1     1       8    1    5    1
 28      1    10       3    8    0    3
 29      1     6       3    6    5    3
 30      1     5       4   10    2    5
 31      1     1       0    2    9    3
 32      1     2       5    0    9    5
 33      1     3       1    0    2    0
 34      1     8       9    5    0   10
 35      1     5       0    2    8    2
 36      1     2       0    9   10    7
 37      1    10       6    3    4    1
 38      1     1       3    6    9    0
 39      1     6       6    3    4    0
 40      1     7       1   10    1    9
 41      1     2       8    6    1    7
 42      1     6       1    9    0    9
 43      1     7       3    7    0    6
 44      1     8       7    0    7    0
 45      1     4       2    9    0    4
 46      1    10       1   10    8    0
 47      1     8       7    7    0    4
 48      1     4       2    5    8    7
 49      1     1       3    3    8    3
 50      1     9       6    7    4    5
 51      1     3       5    8    0    4
 52      1     6       5    0    5    3
 53      1     1       6   10    3    6
 54      1     2       7   10    3    3
 55      1     1       1    5    0    9
 56      1     1       6    6    0    0
 57      1     2       1    3    1    1
 58      1     8      10   10    0    1
 59      1     5       7    7    0    3
 60      1     8       0    1    7    0
 61      1     2       9    7    8    7
 62      1     4       0    0    7    0
 63      1     3       7    5    5    5
 64      1     8       0    0    8    0
 65      1     4       1    3    0    0
 66      1     4       9    8    0    0
 67      1     5       3    3    1    4
 68      1     8       2    8    0    7
 69      1     8       7    3    8    4
 70      1    10      10    7    0    0
 71      1     7       0    4    9    2
 72      1     3       0    3    6    3
 73      1     2       6    8    5    8
 74      1     6       0    0    5    1
 75      1     6       4    0    9    6
 76      1     6       3    3    9    0
 77      1     3       2    0    0    1
 78      1     8      10    5    2    7
 79      1     4       3    5    0    0
 80      1     8       6    8   10    0
 81      1     5       4    0    2    4
 82      1     6       0    4    2    1
 83      1     2       2   10    6    6
 84      1     8       6    5    2    6
 85      1     6       5    9    0    2
 86      1     1       7    7    0    6
 87      1     8       0    7    1   10
 88      1     4       0    8    0    4
 89      1     8       4    8    7    1
 90      1     2       5    1    0    8
 91      1     4       5    5    7    0
 92      1     0       0    0    0    0
************************************************************************
RESOURCEAVAILABILITIES:
  R 1  R 2  R 3  R 4
   26   37   37   35
************************************************************************
